c Result of efficient AIG-to-CNF conversion using package CNF
p cnf 777 2584
-2 713 3 701 703 0
-2 -713 -3 701 703 0
2 -701 0
2 713 -3 0
2 -703 0
2 -713 3 0
3 -4 651 0
3 4 -651 0
-3 4 651 0
-3 -4 -651 0
-4 5 601 0
4 -5 0
4 -601 0
-5 6 552 0
5 -6 0
5 -552 0
-6 7 508 0
6 -7 0
6 -508 0
-7 8 463 0
7 -8 0
7 -463 0
-8 9 423 0
8 -9 0
8 -423 0
-9 10 383 0
9 -10 0
9 -383 0
-10 11 344 0
10 -11 0
10 -344 0
-11 12 269 277 308 0
-11 -12 269 -277 308 0
11 -308 0
11 -12 277 0
11 -269 0
11 12 -277 0
12 -13 237 0
-12 13 0
-12 -237 0
13 -14 210 0
-13 14 0
-13 -210 0
14 -15 182 0
-14 15 0
-14 -182 0
15 -16 159 0
-15 16 0
-15 -159 0
16 -17 135 0
-16 17 0
-16 -135 0
17 -18 116 0
-17 18 0
-17 -116 0
18 -19 96 0
-18 19 0
-18 -96 0
19 -20 81 0
-19 20 0
-19 -81 0
20 -21 67 0
-20 21 0
-20 -67 0
21 -22 54 0
-21 22 0
-21 -54 0
22 -23 41 0
-22 23 0
-22 -41 0
23 -24 35 0
-23 24 0
-23 -35 0
24 25 -32 0
-24 -25 0
-24 32 0
-25 26 30 0
-25 -26 -30 0
25 -26 30 0
25 26 -30 0
26 -742 27 0
-26 742 0
-26 -27 0
-27 741 28 0
27 -741 0
27 -28 0
-28 738 739 740 29 0
28 -29 0
28 -740 0
28 -738 0
28 -739 0
-29 736 737 0
29 -736 0
29 -737 0
-30 741 31 0
-30 -735 -27 -31 0
30 27 -31 0
30 -741 31 0
30 735 -31 0
-31 735 28 0
31 -735 0
31 -28 0
32 -744 33 0
-32 744 0
-32 -33 0
-33 743 34 0
33 -743 0
33 -34 0
-34 742 27 0
34 -742 0
34 -27 0
-35 743 37 0
-35 -743 36 -37 0
-35 -36 37 0
35 743 -37 0
35 -36 -37 0
35 -743 36 37 0
-36 25 34 0
36 -25 0
36 -34 0
-37 -38 40 0
-37 39 40 0
37 -40 0
37 38 -39 0
38 735 741 -742 28 0
-38 -735 0
-38 -28 0
-38 742 0
-38 -741 0
-39 -734 -741 0
-39 -734 -31 0
-39 734 741 31 0
39 734 -741 0
39 734 -31 0
39 -734 741 31 0
40 734 735 -26 0
-40 26 0
-40 -735 0
-40 -734 0
-41 42 44 0
-41 -42 -44 0
41 -42 44 0
41 42 -44 0
42 -743 43 0
-42 743 0
-42 -43 0
-43 36 37 0
43 -36 0
43 -37 0
-44 40 45 0
-44 -40 -45 0
44 -40 45 0
44 40 -45 0
-45 46 48 0
-45 -46 -48 0
45 -46 48 0
45 46 -48 0
46 -741 47 0
-46 741 0
-46 -47 0
-47 734 31 0
47 -734 0
47 -31 0
-48 49 53 0
-48 -49 -53 0
48 -49 53 0
48 49 -53 0
49 -740 50 0
-49 740 0
-49 -50 0
-50 739 51 0
50 -739 0
50 -51 0
-51 736 737 738 52 0
51 -52 0
51 -738 0
51 -736 0
51 -737 0
-52 734 735 0
52 -734 0
52 -735 0
-53 -733 -739 0
-53 -733 -51 0
-53 733 739 51 0
53 733 -739 0
53 733 -51 0
53 -733 739 51 0
-54 -55 65 0
-54 56 65 0
54 -65 0
54 55 -56 0
55 -42 44 0
-55 42 0
-55 -44 0
-56 57 58 0
-56 -57 -58 0
56 -57 58 0
56 57 -58 0
57 -40 45 0
-57 40 0
-57 -45 0
-58 59 60 0
-58 -59 -60 0
58 -59 60 0
58 59 -60 0
59 -46 48 0
-59 46 0
-59 -48 0
-60 61 62 0
60 -61 0
60 -62 0
61 732 733 -49 0
-61 49 0
-61 -733 0
-61 -732 0
62 732 -739 64 0
62 732 -63 64 0
62 -732 739 63 64 0
-62 -732 -739 0
-62 -732 -63 0
-62 -64 0
-62 732 739 63 0
-63 733 51 0
63 -733 0
63 -51 0
64 733 739 -740 51 0
-64 -733 0
-64 -51 0
-64 740 0
-64 -739 0
65 -743 44 66 0
-65 743 0
-65 -44 0
-65 -66 0
-66 43 56 0
66 -43 0
66 -56 0
-67 65 68 0
-67 -65 -68 0
67 -65 68 0
67 65 -68 0
-68 69 70 0
-68 -69 -70 0
68 -69 70 0
68 69 -70 0
69 -57 58 0
-69 57 0
-69 -58 0
-70 71 72 0
-70 -71 -72 0
70 -71 72 0
70 71 -72 0
71 -59 60 0
-71 59 0
-71 -60 0
-72 61 73 0
-72 -61 -73 0
72 -61 73 0
72 61 -73 0
-73 74 76 0
-73 -74 -76 0
73 -74 76 0
73 74 -76 0
74 -739 75 0
-74 739 0
-74 -75 0
-75 732 63 0
75 -732 0
75 -63 0
-76 77 80 0
-76 -77 -80 0
76 -77 80 0
76 77 -80 0
77 -738 78 0
-77 738 0
-77 -78 0
-78 737 79 0
78 -737 0
78 -79 0
-79 732 733 736 52 0
79 -52 0
79 -736 0
79 -732 0
79 -733 0
-80 -731 -737 0
-80 -731 -79 0
-80 731 737 79 0
80 731 -737 0
80 731 -79 0
80 -731 737 79 0
-81 82 83 0
-81 -82 -83 0
81 -82 83 0
81 82 -83 0
82 -65 68 0
-82 65 0
-82 -68 0
-83 84 85 0
-83 -84 -85 0
83 -84 85 0
83 84 -85 0
84 -69 70 0
-84 69 0
-84 -70 0
-85 86 87 0
-85 -86 -87 0
85 -86 87 0
85 86 -87 0
86 -71 72 0
-86 71 0
-86 -72 0
-87 88 89 0
-87 -88 -89 0
87 -88 89 0
87 88 -89 0
88 -61 73 0
-88 61 0
-88 -73 0
-89 90 91 0
-89 -90 -91 0
89 -90 91 0
89 90 -91 0
90 -74 76 0
-90 74 0
-90 -76 0
-91 92 95 0
91 -92 0
91 -95 0
92 730 -737 94 0
92 730 -93 94 0
92 -730 737 93 94 0
-92 -730 -737 0
-92 -730 -93 0
-92 -94 0
-92 730 737 93 0
-93 731 79 0
93 -731 0
93 -79 0
94 731 737 -738 79 0
-94 -731 0
-94 -79 0
-94 738 0
-94 -737 0
95 730 731 -77 0
-95 77 0
-95 -731 0
-95 -730 0
-96 97 98 0
-96 -97 -98 0
96 -97 98 0
96 97 -98 0
97 -82 83 0
-97 82 0
-97 -83 0
-98 99 100 0
-98 -99 -100 0
98 -99 100 0
98 99 -100 0
99 -84 85 0
-99 84 0
-99 -85 0
-100 101 102 0
-100 -101 -102 0
100 -101 102 0
100 101 -102 0
101 -86 87 0
-101 86 0
-101 -87 0
-102 103 104 0
-102 -103 -104 0
102 -103 104 0
102 103 -104 0
103 -88 89 0
-103 88 0
-103 -89 0
-104 105 106 0
-104 -105 -106 0
104 -105 106 0
104 105 -106 0
105 -90 91 0
-105 90 0
-105 -91 0
-106 95 107 0
-106 -95 -107 0
106 -95 107 0
106 95 -107 0
-107 108 110 0
-107 -108 -110 0
107 -108 110 0
107 108 -110 0
108 -737 109 0
-108 737 0
-108 -109 0
-109 730 93 0
109 -730 0
109 -93 0
-110 111 115 0
-110 -111 -115 0
110 -111 115 0
110 111 -115 0
111 -736 112 0
-111 736 0
-111 -112 0
-112 735 113 0
112 -735 0
112 -113 0
-113 730 731 734 114 0
113 -114 0
113 -734 0
113 -730 0
113 -731 0
-114 732 733 0
114 -732 0
114 -733 0
-115 -729 -735 0
-115 -729 -113 0
-115 729 735 113 0
115 729 -735 0
115 729 -113 0
115 -729 735 113 0
-116 117 118 0
-116 -117 -118 0
116 -117 118 0
116 117 -118 0
117 -97 98 0
-117 97 0
-117 -98 0
-118 119 120 0
-118 -119 -120 0
118 -119 120 0
118 119 -120 0
119 -99 100 0
-119 99 0
-119 -100 0
-120 121 122 0
-120 -121 -122 0
120 -121 122 0
120 121 -122 0
121 -101 102 0
-121 101 0
-121 -102 0
-122 123 124 0
-122 -123 -124 0
122 -123 124 0
122 123 -124 0
123 -103 104 0
-123 103 0
-123 -104 0
-124 125 126 0
-124 -125 -126 0
124 -125 126 0
124 125 -126 0
125 -105 106 0
-125 105 0
-125 -106 0
-126 127 128 0
-126 -127 -128 0
126 -127 128 0
126 127 -128 0
127 -95 107 0
-127 95 0
-127 -107 0
-128 129 130 0
-128 -129 -130 0
128 -129 130 0
128 129 -130 0
129 -108 110 0
-129 108 0
-129 -110 0
-130 -131 132 0
-130 132 133 0
130 -132 0
130 131 -133 0
131 729 735 -736 113 0
-131 -729 0
-131 -113 0
-131 736 0
-131 -735 0
132 728 729 -111 0
-132 111 0
-132 -729 0
-132 -728 0
-133 -728 -735 0
-133 -728 -134 0
-133 728 735 134 0
133 728 -735 0
133 728 -134 0
133 -728 735 134 0
-134 729 113 0
134 -729 0
134 -113 0
-135 136 137 0
-135 -136 -137 0
135 -136 137 0
135 136 -137 0
136 -117 118 0
-136 117 0
-136 -118 0
-137 138 139 0
-137 -138 -139 0
137 -138 139 0
137 138 -139 0
138 -119 120 0
-138 119 0
-138 -120 0
-139 140 141 0
-139 -140 -141 0
139 -140 141 0
139 140 -141 0
140 -121 122 0
-140 121 0
-140 -122 0
-141 142 143 0
-141 -142 -143 0
141 -142 143 0
141 142 -143 0
142 -123 124 0
-142 123 0
-142 -124 0
-143 144 145 0
-143 -144 -145 0
143 -144 145 0
143 144 -145 0
144 -125 126 0
-144 125 0
-144 -126 0
-145 146 147 0
-145 -146 -147 0
145 -146 147 0
145 146 -147 0
146 -127 128 0
-146 127 0
-146 -128 0
-147 148 149 0
-147 -148 -149 0
147 -148 149 0
147 148 -149 0
148 -129 130 0
-148 129 0
-148 -130 0
-149 132 150 0
-149 -132 -150 0
149 -132 150 0
149 132 -150 0
-150 151 153 0
-150 -151 -153 0
150 -151 153 0
150 151 -153 0
151 -735 152 0
-151 735 0
-151 -152 0
-152 728 134 0
152 -728 0
152 -134 0
-153 154 158 0
-153 -154 -158 0
153 -154 158 0
153 154 -158 0
154 -734 155 0
-154 734 0
-154 -155 0
-155 733 156 0
155 -733 0
155 -156 0
-156 728 729 732 157 0
156 -157 0
156 -732 0
156 -728 0
156 -729 0
-157 730 731 0
157 -730 0
157 -731 0
-158 -727 -733 0
-158 -727 -156 0
-158 727 733 156 0
158 727 -733 0
158 727 -156 0
158 -727 733 156 0
-159 160 161 0
-159 -160 -161 0
159 -160 161 0
159 160 -161 0
160 -136 137 0
-160 136 0
-160 -137 0
-161 162 163 0
-161 -162 -163 0
161 -162 163 0
161 162 -163 0
162 -138 139 0
-162 138 0
-162 -139 0
-163 164 165 0
-163 -164 -165 0
163 -164 165 0
163 164 -165 0
164 -140 141 0
-164 140 0
-164 -141 0
-165 166 167 0
-165 -166 -167 0
165 -166 167 0
165 166 -167 0
166 -142 143 0
-166 142 0
-166 -143 0
-167 168 169 0
-167 -168 -169 0
167 -168 169 0
167 168 -169 0
168 -144 145 0
-168 144 0
-168 -145 0
-169 170 171 0
-169 -170 -171 0
169 -170 171 0
169 170 -171 0
170 -146 147 0
-170 146 0
-170 -147 0
-171 172 173 0
-171 -172 -173 0
171 -172 173 0
171 172 -173 0
172 -148 149 0
-172 148 0
-172 -149 0
-173 174 175 0
-173 -174 -175 0
173 -174 175 0
173 174 -175 0
174 -132 150 0
-174 132 0
-174 -150 0
-175 176 177 0
-175 -176 -177 0
175 -176 177 0
175 176 -177 0
176 -151 153 0
-176 151 0
-176 -153 0
-177 178 179 0
177 -178 0
177 -179 0
178 726 727 -154 0
-178 154 0
-178 -727 0
-178 -726 0
179 726 -733 181 0
179 726 -180 181 0
179 -726 733 180 181 0
-179 -726 -733 0
-179 -726 -180 0
-179 -181 0
-179 726 733 180 0
-180 727 156 0
180 -727 0
180 -156 0
181 727 733 -734 156 0
-181 -727 0
-181 -156 0
-181 734 0
-181 -733 0
-182 183 184 0
-182 -183 -184 0
182 -183 184 0
182 183 -184 0
183 -160 161 0
-183 160 0
-183 -161 0
-184 185 186 0
-184 -185 -186 0
184 -185 186 0
184 185 -186 0
185 -162 163 0
-185 162 0
-185 -163 0
-186 187 188 0
-186 -187 -188 0
186 -187 188 0
186 187 -188 0
187 -164 165 0
-187 164 0
-187 -165 0
-188 189 190 0
-188 -189 -190 0
188 -189 190 0
188 189 -190 0
189 -166 167 0
-189 166 0
-189 -167 0
-190 191 192 0
-190 -191 -192 0
190 -191 192 0
190 191 -192 0
191 -168 169 0
-191 168 0
-191 -169 0
-192 193 194 0
-192 -193 -194 0
192 -193 194 0
192 193 -194 0
193 -170 171 0
-193 170 0
-193 -171 0
-194 195 196 0
-194 -195 -196 0
194 -195 196 0
194 195 -196 0
195 -172 173 0
-195 172 0
-195 -173 0
-196 197 198 0
-196 -197 -198 0
196 -197 198 0
196 197 -198 0
197 -174 175 0
-197 174 0
-197 -175 0
-198 199 200 0
-198 -199 -200 0
198 -199 200 0
198 199 -200 0
199 -176 177 0
-199 176 0
-199 -177 0
-200 178 201 0
-200 -178 -201 0
200 -178 201 0
200 178 -201 0
-201 202 204 0
-201 -202 -204 0
201 -202 204 0
201 202 -204 0
202 -733 203 0
-202 733 0
-202 -203 0
-203 726 180 0
203 -726 0
203 -180 0
-204 205 209 0
-204 -205 -209 0
204 -205 209 0
204 205 -209 0
205 -732 206 0
-205 732 0
-205 -206 0
-206 731 207 0
206 -731 0
206 -207 0
-207 726 727 730 208 0
207 -208 0
207 -730 0
207 -726 0
207 -727 0
-208 728 729 0
208 -728 0
208 -729 0
-209 -725 -731 0
-209 -725 -207 0
-209 725 731 207 0
209 725 -731 0
209 725 -207 0
209 -725 731 207 0
-210 211 212 0
-210 -211 -212 0
210 -211 212 0
210 211 -212 0
211 -183 184 0
-211 183 0
-211 -184 0
-212 213 214 0
-212 -213 -214 0
212 -213 214 0
212 213 -214 0
213 -185 186 0
-213 185 0
-213 -186 0
-214 215 216 0
-214 -215 -216 0
214 -215 216 0
214 215 -216 0
215 -187 188 0
-215 187 0
-215 -188 0
-216 217 218 0
-216 -217 -218 0
216 -217 218 0
216 217 -218 0
217 -189 190 0
-217 189 0
-217 -190 0
-218 219 220 0
-218 -219 -220 0
218 -219 220 0
218 219 -220 0
219 -191 192 0
-219 191 0
-219 -192 0
-220 221 222 0
-220 -221 -222 0
220 -221 222 0
220 221 -222 0
221 -193 194 0
-221 193 0
-221 -194 0
-222 223 224 0
-222 -223 -224 0
222 -223 224 0
222 223 -224 0
223 -195 196 0
-223 195 0
-223 -196 0
-224 225 226 0
-224 -225 -226 0
224 -225 226 0
224 225 -226 0
225 -197 198 0
-225 197 0
-225 -198 0
-226 227 228 0
-226 -227 -228 0
226 -227 228 0
226 227 -228 0
227 -199 200 0
-227 199 0
-227 -200 0
-228 229 230 0
-228 -229 -230 0
228 -229 230 0
228 229 -230 0
229 -178 201 0
-229 178 0
-229 -201 0
-230 231 232 0
-230 -231 -232 0
230 -231 232 0
230 231 -232 0
231 -202 204 0
-231 202 0
-231 -204 0
-232 -233 234 0
-232 234 235 0
232 -234 0
232 233 -235 0
233 725 731 -732 207 0
-233 -725 0
-233 -207 0
-233 732 0
-233 -731 0
234 724 725 -205 0
-234 205 0
-234 -725 0
-234 -724 0
-235 -724 -731 0
-235 -724 -236 0
-235 724 731 236 0
235 724 -731 0
235 724 -236 0
235 -724 731 236 0
-236 725 207 0
236 -725 0
236 -207 0
-237 238 239 0
-237 -238 -239 0
237 -238 239 0
237 238 -239 0
238 -211 212 0
-238 211 0
-238 -212 0
-239 240 241 0
-239 -240 -241 0
239 -240 241 0
239 240 -241 0
240 -213 214 0
-240 213 0
-240 -214 0
-241 242 243 0
-241 -242 -243 0
241 -242 243 0
241 242 -243 0
242 -215 216 0
-242 215 0
-242 -216 0
-243 244 245 0
-243 -244 -245 0
243 -244 245 0
243 244 -245 0
244 -217 218 0
-244 217 0
-244 -218 0
-245 246 247 0
-245 -246 -247 0
245 -246 247 0
245 246 -247 0
246 -219 220 0
-246 219 0
-246 -220 0
-247 248 249 0
-247 -248 -249 0
247 -248 249 0
247 248 -249 0
248 -221 222 0
-248 221 0
-248 -222 0
-249 250 251 0
-249 -250 -251 0
249 -250 251 0
249 250 -251 0
250 -223 224 0
-250 223 0
-250 -224 0
-251 252 253 0
-251 -252 -253 0
251 -252 253 0
251 252 -253 0
252 -225 226 0
-252 225 0
-252 -226 0
-253 254 255 0
-253 -254 -255 0
253 -254 255 0
253 254 -255 0
254 -227 228 0
-254 227 0
-254 -228 0
-255 256 257 0
-255 -256 -257 0
255 -256 257 0
255 256 -257 0
256 -229 230 0
-256 229 0
-256 -230 0
-257 258 259 0
-257 -258 -259 0
257 -258 259 0
257 258 -259 0
258 -231 232 0
-258 231 0
-258 -232 0
-259 234 260 0
-259 -234 -260 0
259 -234 260 0
259 234 -260 0
-260 261 263 0
-260 -261 -263 0
260 -261 263 0
260 261 -263 0
261 -731 262 0
-261 731 0
-261 -262 0
-262 724 236 0
262 -724 0
262 -236 0
-263 264 268 0
-263 -264 -268 0
263 -264 268 0
263 264 -268 0
264 -730 265 0
-264 730 0
-264 -265 0
-265 729 266 0
265 -729 0
265 -266 0
-266 724 725 728 267 0
266 -267 0
266 -728 0
266 -724 0
266 -725 0
-267 726 727 0
267 -726 0
267 -727 0
-268 -723 -729 0
-268 -723 -266 0
-268 723 729 266 0
268 723 -729 0
268 723 -266 0
268 -723 729 266 0
-269 14 270 210 237 0
-269 -14 270 -210 237 0
269 -237 0
269 -14 210 0
269 -270 0
269 14 -210 0
-270 16 271 159 182 0
-270 -16 271 -159 182 0
270 -182 0
270 -16 159 0
270 -271 0
270 16 -159 0
-271 18 272 116 135 0
-271 -18 272 -116 135 0
271 -135 0
271 -18 116 0
271 -272 0
271 18 -116 0
-272 20 273 81 96 0
-272 -20 273 -81 96 0
272 -96 0
272 -20 81 0
272 -273 0
272 20 -81 0
-273 21 274 67 0
-273 -21 274 -67 0
273 -274 0
273 -21 67 0
273 21 -67 0
-274 23 275 41 54 0
-274 -23 275 -41 54 0
274 -54 0
274 -23 41 0
274 -275 0
274 23 -41 0
-275 24 276 35 0
-275 -24 276 -35 0
275 -276 0
275 -24 35 0
275 24 -35 0
-276 743 744 25 34 0
276 -743 0
276 -34 0
276 -25 0
276 -744 0
-277 278 279 0
-277 -278 -279 0
277 -278 279 0
277 278 -279 0
278 -238 239 0
-278 238 0
-278 -239 0
-279 280 281 0
-279 -280 -281 0
279 -280 281 0
279 280 -281 0
280 -240 241 0
-280 240 0
-280 -241 0
-281 282 283 0
-281 -282 -283 0
281 -282 283 0
281 282 -283 0
282 -242 243 0
-282 242 0
-282 -243 0
-283 284 285 0
-283 -284 -285 0
283 -284 285 0
283 284 -285 0
284 -244 245 0
-284 244 0
-284 -245 0
-285 286 287 0
-285 -286 -287 0
285 -286 287 0
285 286 -287 0
286 -246 247 0
-286 246 0
-286 -247 0
-287 288 289 0
-287 -288 -289 0
287 -288 289 0
287 288 -289 0
288 -248 249 0
-288 248 0
-288 -249 0
-289 290 291 0
-289 -290 -291 0
289 -290 291 0
289 290 -291 0
290 -250 251 0
-290 250 0
-290 -251 0
-291 292 293 0
-291 -292 -293 0
291 -292 293 0
291 292 -293 0
292 -252 253 0
-292 252 0
-292 -253 0
-293 294 295 0
-293 -294 -295 0
293 -294 295 0
293 294 -295 0
294 -254 255 0
-294 254 0
-294 -255 0
-295 296 297 0
-295 -296 -297 0
295 -296 297 0
295 296 -297 0
296 -256 257 0
-296 256 0
-296 -257 0
-297 298 299 0
-297 -298 -299 0
297 -298 299 0
297 298 -299 0
298 -258 259 0
-298 258 0
-298 -259 0
-299 300 301 0
-299 -300 -301 0
299 -300 301 0
299 300 -301 0
300 -234 260 0
-300 234 0
-300 -260 0
-301 302 303 0
-301 -302 -303 0
301 -302 303 0
301 302 -303 0
302 -261 263 0
-302 261 0
-302 -263 0
-303 -304 305 0
-303 305 306 0
303 -305 0
303 304 -306 0
304 723 729 -730 266 0
-304 -723 0
-304 -266 0
-304 730 0
-304 -729 0
305 722 723 -264 0
-305 264 0
-305 -723 0
-305 -722 0
-306 -722 -729 0
-306 -722 -307 0
-306 722 729 307 0
306 722 -729 0
306 722 -307 0
306 -722 729 307 0
-307 723 266 0
307 -723 0
307 -266 0
-308 309 310 0
-308 -309 -310 0
308 -309 310 0
308 309 -310 0
309 -278 279 0
-309 278 0
-309 -279 0
-310 311 312 0
-310 -311 -312 0
310 -311 312 0
310 311 -312 0
311 -280 281 0
-311 280 0
-311 -281 0
-312 313 314 0
-312 -313 -314 0
312 -313 314 0
312 313 -314 0
313 -282 283 0
-313 282 0
-313 -283 0
-314 315 316 0
-314 -315 -316 0
314 -315 316 0
314 315 -316 0
315 -284 285 0
-315 284 0
-315 -285 0
-316 317 318 0
-316 -317 -318 0
316 -317 318 0
316 317 -318 0
317 -286 287 0
-317 286 0
-317 -287 0
-318 319 320 0
-318 -319 -320 0
318 -319 320 0
318 319 -320 0
319 -288 289 0
-319 288 0
-319 -289 0
-320 321 322 0
-320 -321 -322 0
320 -321 322 0
320 321 -322 0
321 -290 291 0
-321 290 0
-321 -291 0
-322 323 324 0
-322 -323 -324 0
322 -323 324 0
322 323 -324 0
323 -292 293 0
-323 292 0
-323 -293 0
-324 325 326 0
-324 -325 -326 0
324 -325 326 0
324 325 -326 0
325 -294 295 0
-325 294 0
-325 -295 0
-326 327 328 0
-326 -327 -328 0
326 -327 328 0
326 327 -328 0
327 -296 297 0
-327 296 0
-327 -297 0
-328 329 330 0
-328 -329 -330 0
328 -329 330 0
328 329 -330 0
329 -298 299 0
-329 298 0
-329 -299 0
-330 331 332 0
-330 -331 -332 0
330 -331 332 0
330 331 -332 0
331 -300 301 0
-331 300 0
-331 -301 0
-332 333 334 0
-332 -333 -334 0
332 -333 334 0
332 333 -334 0
333 -302 303 0
-333 302 0
-333 -303 0
-334 305 335 0
-334 -305 -335 0
334 -305 335 0
334 305 -335 0
-335 336 338 0
-335 -336 -338 0
335 -336 338 0
335 336 -338 0
336 -729 337 0
-336 729 0
-336 -337 0
-337 722 307 0
337 -722 0
337 -307 0
-338 339 343 0
-338 -339 -343 0
338 -339 343 0
338 339 -343 0
339 -728 340 0
-339 728 0
-339 -340 0
-340 727 341 0
340 -727 0
340 -341 0
-341 726 342 0
341 -726 0
341 -342 0
-342 722 723 724 725 0
342 -725 0
342 -724 0
342 -722 0
342 -723 0
-343 -721 -727 0
-343 -721 -341 0
-343 721 727 341 0
343 721 -727 0
343 721 -341 0
343 -721 727 341 0
-344 345 347 0
-344 -345 -347 0
344 -345 347 0
344 345 -347 0
345 -346 308 0
-345 346 0
-345 -308 0
346 -12 277 0
-346 12 0
-346 -277 0
-347 348 349 0
-347 -348 -349 0
347 -348 349 0
347 348 -349 0
348 -309 310 0
-348 309 0
-348 -310 0
-349 350 351 0
-349 -350 -351 0
349 -350 351 0
349 350 -351 0
350 -311 312 0
-350 311 0
-350 -312 0
-351 352 353 0
-351 -352 -353 0
351 -352 353 0
351 352 -353 0
352 -313 314 0
-352 313 0
-352 -314 0
-353 354 355 0
-353 -354 -355 0
353 -354 355 0
353 354 -355 0
354 -315 316 0
-354 315 0
-354 -316 0
-355 356 357 0
-355 -356 -357 0
355 -356 357 0
355 356 -357 0
356 -317 318 0
-356 317 0
-356 -318 0
-357 358 359 0
-357 -358 -359 0
357 -358 359 0
357 358 -359 0
358 -319 320 0
-358 319 0
-358 -320 0
-359 360 361 0
-359 -360 -361 0
359 -360 361 0
359 360 -361 0
360 -321 322 0
-360 321 0
-360 -322 0
-361 362 363 0
-361 -362 -363 0
361 -362 363 0
361 362 -363 0
362 -323 324 0
-362 323 0
-362 -324 0
-363 364 365 0
-363 -364 -365 0
363 -364 365 0
363 364 -365 0
364 -325 326 0
-364 325 0
-364 -326 0
-365 366 367 0
-365 -366 -367 0
365 -366 367 0
365 366 -367 0
366 -327 328 0
-366 327 0
-366 -328 0
-367 368 369 0
-367 -368 -369 0
367 -368 369 0
367 368 -369 0
368 -329 330 0
-368 329 0
-368 -330 0
-369 370 371 0
-369 -370 -371 0
369 -370 371 0
369 370 -371 0
370 -331 332 0
-370 331 0
-370 -332 0
-371 372 373 0
-371 -372 -373 0
371 -372 373 0
371 372 -373 0
372 -333 334 0
-372 333 0
-372 -334 0
-373 374 375 0
-373 -374 -375 0
373 -374 375 0
373 374 -375 0
374 -305 335 0
-374 305 0
-374 -335 0
-375 376 377 0
-375 -376 -377 0
375 -376 377 0
375 376 -377 0
376 -336 338 0
-376 336 0
-376 -338 0
-377 378 380 0
377 -378 0
377 -380 0
378 -339 379 0
-378 339 0
-378 -379 0
-379 720 721 0
379 -720 0
379 -721 0
380 720 -727 382 0
380 720 -381 382 0
380 -720 727 381 382 0
-380 -720 -727 0
-380 -720 -381 0
-380 -382 0
-380 720 727 381 0
-381 721 341 0
381 -721 0
381 -341 0
382 721 727 -728 341 0
-382 -721 0
-382 -341 0
-382 728 0
-382 -727 0
-383 384 385 0
-383 -384 -385 0
383 -384 385 0
383 384 -385 0
384 -345 347 0
-384 345 0
-384 -347 0
-385 386 387 0
-385 -386 -387 0
385 -386 387 0
385 386 -387 0
386 -348 349 0
-386 348 0
-386 -349 0
-387 388 389 0
-387 -388 -389 0
387 -388 389 0
387 388 -389 0
388 -350 351 0
-388 350 0
-388 -351 0
-389 390 391 0
-389 -390 -391 0
389 -390 391 0
389 390 -391 0
390 -352 353 0
-390 352 0
-390 -353 0
-391 392 393 0
-391 -392 -393 0
391 -392 393 0
391 392 -393 0
392 -354 355 0
-392 354 0
-392 -355 0
-393 394 395 0
-393 -394 -395 0
393 -394 395 0
393 394 -395 0
394 -356 357 0
-394 356 0
-394 -357 0
-395 396 397 0
-395 -396 -397 0
395 -396 397 0
395 396 -397 0
396 -358 359 0
-396 358 0
-396 -359 0
-397 398 399 0
-397 -398 -399 0
397 -398 399 0
397 398 -399 0
398 -360 361 0
-398 360 0
-398 -361 0
-399 400 401 0
-399 -400 -401 0
399 -400 401 0
399 400 -401 0
400 -362 363 0
-400 362 0
-400 -363 0
-401 402 403 0
-401 -402 -403 0
401 -402 403 0
401 402 -403 0
402 -364 365 0
-402 364 0
-402 -365 0
-403 404 405 0
-403 -404 -405 0
403 -404 405 0
403 404 -405 0
404 -366 367 0
-404 366 0
-404 -367 0
-405 406 407 0
-405 -406 -407 0
405 -406 407 0
405 406 -407 0
406 -368 369 0
-406 368 0
-406 -369 0
-407 408 409 0
-407 -408 -409 0
407 -408 409 0
407 408 -409 0
408 -370 371 0
-408 370 0
-408 -371 0
-409 410 411 0
-409 -410 -411 0
409 -410 411 0
409 410 -411 0
410 -372 373 0
-410 372 0
-410 -373 0
-411 412 413 0
-411 -412 -413 0
411 -412 413 0
411 412 -413 0
412 -374 375 0
-412 374 0
-412 -375 0
-413 414 415 0
-413 -414 -415 0
413 -414 415 0
413 414 -415 0
414 -376 377 0
-414 376 0
-414 -377 0
-415 378 416 0
-415 -378 -416 0
415 -378 416 0
415 378 -416 0
-416 417 419 0
-416 -417 -419 0
416 -417 419 0
416 417 -419 0
417 -727 418 0
-417 727 0
-417 -418 0
-418 720 381 0
418 -720 0
418 -381 0
-419 420 421 0
-419 -420 -421 0
419 -420 421 0
419 420 -421 0
420 -726 342 379 0
-420 726 0
-420 -342 0
-420 -379 0
-421 -719 -725 0
-421 -719 -422 0
-421 719 725 422 0
421 719 -725 0
421 719 -422 0
421 -719 725 422 0
-422 722 723 724 379 0
422 -379 0
422 -724 0
422 -722 0
422 -723 0
-423 424 425 0
-423 -424 -425 0
423 -424 425 0
423 424 -425 0
424 -384 385 0
-424 384 0
-424 -385 0
-425 426 427 0
-425 -426 -427 0
425 -426 427 0
425 426 -427 0
426 -386 387 0
-426 386 0
-426 -387 0
-427 428 429 0
-427 -428 -429 0
427 -428 429 0
427 428 -429 0
428 -388 389 0
-428 388 0
-428 -389 0
-429 430 431 0
-429 -430 -431 0
429 -430 431 0
429 430 -431 0
430 -390 391 0
-430 390 0
-430 -391 0
-431 432 433 0
-431 -432 -433 0
431 -432 433 0
431 432 -433 0
432 -392 393 0
-432 392 0
-432 -393 0
-433 434 435 0
-433 -434 -435 0
433 -434 435 0
433 434 -435 0
434 -394 395 0
-434 394 0
-434 -395 0
-435 436 437 0
-435 -436 -437 0
435 -436 437 0
435 436 -437 0
436 -396 397 0
-436 396 0
-436 -397 0
-437 438 439 0
-437 -438 -439 0
437 -438 439 0
437 438 -439 0
438 -398 399 0
-438 398 0
-438 -399 0
-439 440 441 0
-439 -440 -441 0
439 -440 441 0
439 440 -441 0
440 -400 401 0
-440 400 0
-440 -401 0
-441 442 443 0
-441 -442 -443 0
441 -442 443 0
441 442 -443 0
442 -402 403 0
-442 402 0
-442 -403 0
-443 444 445 0
-443 -444 -445 0
443 -444 445 0
443 444 -445 0
444 -404 405 0
-444 404 0
-444 -405 0
-445 446 447 0
-445 -446 -447 0
445 -446 447 0
445 446 -447 0
446 -406 407 0
-446 406 0
-446 -407 0
-447 448 449 0
-447 -448 -449 0
447 -448 449 0
447 448 -449 0
448 -408 409 0
-448 408 0
-448 -409 0
-449 450 451 0
-449 -450 -451 0
449 -450 451 0
449 450 -451 0
450 -410 411 0
-450 410 0
-450 -411 0
-451 452 453 0
-451 -452 -453 0
451 -452 453 0
451 452 -453 0
452 -412 413 0
-452 412 0
-452 -413 0
-453 454 455 0
-453 -454 -455 0
453 -454 455 0
453 454 -455 0
454 -414 415 0
-454 414 0
-454 -415 0
-455 456 457 0
-455 -456 -457 0
455 -456 457 0
455 456 -457 0
456 -378 416 0
-456 378 0
-456 -416 0
-457 458 459 0
-457 -458 -459 0
457 -458 459 0
457 458 -459 0
458 -417 419 0
-458 417 0
-458 -419 0
-459 460 461 0
-459 -460 -461 0
459 -460 461 0
459 460 -461 0
460 -420 421 0
-460 420 0
-460 -421 0
-461 -718 -725 0
-461 -718 -462 0
-461 718 725 462 0
461 718 -725 0
461 718 -462 0
461 -718 725 462 0
-462 719 422 0
462 -719 0
462 -422 0
-463 464 465 0
-463 -464 -465 0
463 -464 465 0
463 464 -465 0
464 -424 425 0
-464 424 0
-464 -425 0
-465 466 467 0
-465 -466 -467 0
465 -466 467 0
465 466 -467 0
466 -426 427 0
-466 426 0
-466 -427 0
-467 468 469 0
-467 -468 -469 0
467 -468 469 0
467 468 -469 0
468 -428 429 0
-468 428 0
-468 -429 0
-469 470 471 0
-469 -470 -471 0
469 -470 471 0
469 470 -471 0
470 -430 431 0
-470 430 0
-470 -431 0
-471 472 473 0
-471 -472 -473 0
471 -472 473 0
471 472 -473 0
472 -432 433 0
-472 432 0
-472 -433 0
-473 474 475 0
-473 -474 -475 0
473 -474 475 0
473 474 -475 0
474 -434 435 0
-474 434 0
-474 -435 0
-475 476 477 0
-475 -476 -477 0
475 -476 477 0
475 476 -477 0
476 -436 437 0
-476 436 0
-476 -437 0
-477 478 479 0
-477 -478 -479 0
477 -478 479 0
477 478 -479 0
478 -438 439 0
-478 438 0
-478 -439 0
-479 480 481 0
-479 -480 -481 0
479 -480 481 0
479 480 -481 0
480 -440 441 0
-480 440 0
-480 -441 0
-481 482 483 0
-481 -482 -483 0
481 -482 483 0
481 482 -483 0
482 -442 443 0
-482 442 0
-482 -443 0
-483 484 485 0
-483 -484 -485 0
483 -484 485 0
483 484 -485 0
484 -444 445 0
-484 444 0
-484 -445 0
-485 486 487 0
-485 -486 -487 0
485 -486 487 0
485 486 -487 0
486 -446 447 0
-486 446 0
-486 -447 0
-487 488 489 0
-487 -488 -489 0
487 -488 489 0
487 488 -489 0
488 -448 449 0
-488 448 0
-488 -449 0
-489 490 491 0
-489 -490 -491 0
489 -490 491 0
489 490 -491 0
490 -450 451 0
-490 450 0
-490 -451 0
-491 492 493 0
-491 -492 -493 0
491 -492 493 0
491 492 -493 0
492 -452 453 0
-492 452 0
-492 -453 0
-493 494 495 0
-493 -494 -495 0
493 -494 495 0
493 494 -495 0
494 -454 455 0
-494 454 0
-494 -455 0
-495 496 497 0
-495 -496 -497 0
495 -496 497 0
495 496 -497 0
496 -456 457 0
-496 456 0
-496 -457 0
-497 498 499 0
-497 -498 -499 0
497 -498 499 0
497 498 -499 0
498 -458 459 0
-498 458 0
-498 -459 0
-499 500 501 0
-499 -500 -501 0
499 -500 501 0
499 500 -501 0
500 -460 461 0
-500 460 0
-500 -461 0
-501 502 504 0
-501 -502 -504 0
501 -502 504 0
501 502 -504 0
502 -725 503 0
-502 725 0
-502 -503 0
-503 718 462 0
503 -718 0
503 -462 0
-504 -717 -724 0
-504 -717 -505 0
-504 717 724 505 0
504 717 -724 0
504 717 -505 0
504 -717 724 505 0
-505 723 506 0
505 -723 0
505 -506 0
-506 722 507 0
506 -722 0
506 -507 0
-507 718 719 379 0
507 -379 0
507 -719 0
507 -718 0
-508 509 510 0
-508 -509 -510 0
508 -509 510 0
508 509 -510 0
509 -464 465 0
-509 464 0
-509 -465 0
-510 511 512 0
-510 -511 -512 0
510 -511 512 0
510 511 -512 0
511 -466 467 0
-511 466 0
-511 -467 0
-512 513 514 0
-512 -513 -514 0
512 -513 514 0
512 513 -514 0
513 -468 469 0
-513 468 0
-513 -469 0
-514 515 516 0
-514 -515 -516 0
514 -515 516 0
514 515 -516 0
515 -470 471 0
-515 470 0
-515 -471 0
-516 517 518 0
-516 -517 -518 0
516 -517 518 0
516 517 -518 0
517 -472 473 0
-517 472 0
-517 -473 0
-518 519 520 0
-518 -519 -520 0
518 -519 520 0
518 519 -520 0
519 -474 475 0
-519 474 0
-519 -475 0
-520 521 522 0
-520 -521 -522 0
520 -521 522 0
520 521 -522 0
521 -476 477 0
-521 476 0
-521 -477 0
-522 523 524 0
-522 -523 -524 0
522 -523 524 0
522 523 -524 0
523 -478 479 0
-523 478 0
-523 -479 0
-524 525 526 0
-524 -525 -526 0
524 -525 526 0
524 525 -526 0
525 -480 481 0
-525 480 0
-525 -481 0
-526 527 528 0
-526 -527 -528 0
526 -527 528 0
526 527 -528 0
527 -482 483 0
-527 482 0
-527 -483 0
-528 529 530 0
-528 -529 -530 0
528 -529 530 0
528 529 -530 0
529 -484 485 0
-529 484 0
-529 -485 0
-530 531 532 0
-530 -531 -532 0
530 -531 532 0
530 531 -532 0
531 -486 487 0
-531 486 0
-531 -487 0
-532 533 534 0
-532 -533 -534 0
532 -533 534 0
532 533 -534 0
533 -488 489 0
-533 488 0
-533 -489 0
-534 535 536 0
-534 -535 -536 0
534 -535 536 0
534 535 -536 0
535 -490 491 0
-535 490 0
-535 -491 0
-536 537 538 0
-536 -537 -538 0
536 -537 538 0
536 537 -538 0
537 -492 493 0
-537 492 0
-537 -493 0
-538 539 540 0
-538 -539 -540 0
538 -539 540 0
538 539 -540 0
539 -494 495 0
-539 494 0
-539 -495 0
-540 541 542 0
-540 -541 -542 0
540 -541 542 0
540 541 -542 0
541 -496 497 0
-541 496 0
-541 -497 0
-542 543 544 0
-542 -543 -544 0
542 -543 544 0
542 543 -544 0
543 -498 499 0
-543 498 0
-543 -499 0
-544 545 546 0
-544 -545 -546 0
544 -545 546 0
544 545 -546 0
545 -500 501 0
-545 500 0
-545 -501 0
-546 547 548 0
-546 -547 -548 0
546 -547 548 0
546 547 -548 0
547 -502 504 0
-547 502 0
-547 -504 0
-548 549 550 0
-548 -549 -550 0
548 -549 550 0
548 549 -550 0
549 717 -724 505 0
-549 -505 0
-549 724 0
-549 -717 0
-550 -716 -723 0
-550 -716 -551 0
-550 716 723 551 0
550 716 -723 0
550 716 -551 0
550 -716 723 551 0
-551 717 506 0
551 -717 0
551 -506 0
-552 553 554 0
-552 -553 -554 0
552 -553 554 0
552 553 -554 0
553 -509 510 0
-553 509 0
-553 -510 0
-554 555 556 0
-554 -555 -556 0
554 -555 556 0
554 555 -556 0
555 -511 512 0
-555 511 0
-555 -512 0
-556 557 558 0
-556 -557 -558 0
556 -557 558 0
556 557 -558 0
557 -513 514 0
-557 513 0
-557 -514 0
-558 559 560 0
-558 -559 -560 0
558 -559 560 0
558 559 -560 0
559 -515 516 0
-559 515 0
-559 -516 0
-560 561 562 0
-560 -561 -562 0
560 -561 562 0
560 561 -562 0
561 -517 518 0
-561 517 0
-561 -518 0
-562 563 564 0
-562 -563 -564 0
562 -563 564 0
562 563 -564 0
563 -519 520 0
-563 519 0
-563 -520 0
-564 565 566 0
-564 -565 -566 0
564 -565 566 0
564 565 -566 0
565 -521 522 0
-565 521 0
-565 -522 0
-566 567 568 0
-566 -567 -568 0
566 -567 568 0
566 567 -568 0
567 -523 524 0
-567 523 0
-567 -524 0
-568 569 570 0
-568 -569 -570 0
568 -569 570 0
568 569 -570 0
569 -525 526 0
-569 525 0
-569 -526 0
-570 571 572 0
-570 -571 -572 0
570 -571 572 0
570 571 -572 0
571 -527 528 0
-571 527 0
-571 -528 0
-572 573 574 0
-572 -573 -574 0
572 -573 574 0
572 573 -574 0
573 -529 530 0
-573 529 0
-573 -530 0
-574 575 576 0
-574 -575 -576 0
574 -575 576 0
574 575 -576 0
575 -531 532 0
-575 531 0
-575 -532 0
-576 577 578 0
-576 -577 -578 0
576 -577 578 0
576 577 -578 0
577 -533 534 0
-577 533 0
-577 -534 0
-578 579 580 0
-578 -579 -580 0
578 -579 580 0
578 579 -580 0
579 -535 536 0
-579 535 0
-579 -536 0
-580 581 582 0
-580 -581 -582 0
580 -581 582 0
580 581 -582 0
581 -537 538 0
-581 537 0
-581 -538 0
-582 583 584 0
-582 -583 -584 0
582 -583 584 0
582 583 -584 0
583 -539 540 0
-583 539 0
-583 -540 0
-584 585 586 0
-584 -585 -586 0
584 -585 586 0
584 585 -586 0
585 -541 542 0
-585 541 0
-585 -542 0
-586 587 588 0
-586 -587 -588 0
586 -587 588 0
586 587 -588 0
587 -543 544 0
-587 543 0
-587 -544 0
-588 589 590 0
-588 -589 -590 0
588 -589 590 0
588 589 -590 0
589 -545 546 0
-589 545 0
-589 -546 0
-590 591 592 0
-590 -591 -592 0
590 -591 592 0
590 591 -592 0
591 -547 548 0
-591 547 0
-591 -548 0
-592 593 594 0
-592 -593 -594 0
592 -593 594 0
592 593 -594 0
593 -549 550 0
-593 549 0
-593 -550 0
-594 595 596 0
-594 -595 -596 0
594 -595 596 0
594 595 -596 0
595 716 -723 551 0
-595 -551 0
-595 723 0
-595 -716 0
-596 597 598 0
-596 -597 -598 0
596 -597 598 0
596 597 -598 0
597 716 717 -722 507 0
-597 -716 0
-597 -507 0
-597 722 0
-597 -717 0
-598 -715 -721 0
-598 -715 -599 0
-598 715 721 599 0
598 715 -721 0
598 715 -599 0
598 -715 721 599 0
-599 716 717 720 600 0
599 -600 0
599 -720 0
599 -716 0
599 -717 0
-600 718 719 0
600 -718 0
600 -719 0
-601 602 603 0
-601 -602 -603 0
601 -602 603 0
601 602 -603 0
602 -553 554 0
-602 553 0
-602 -554 0
-603 604 605 0
-603 -604 -605 0
603 -604 605 0
603 604 -605 0
604 -555 556 0
-604 555 0
-604 -556 0
-605 606 607 0
-605 -606 -607 0
605 -606 607 0
605 606 -607 0
606 -557 558 0
-606 557 0
-606 -558 0
-607 608 609 0
-607 -608 -609 0
607 -608 609 0
607 608 -609 0
608 -559 560 0
-608 559 0
-608 -560 0
-609 610 611 0
-609 -610 -611 0
609 -610 611 0
609 610 -611 0
610 -561 562 0
-610 561 0
-610 -562 0
-611 612 613 0
-611 -612 -613 0
611 -612 613 0
611 612 -613 0
612 -563 564 0
-612 563 0
-612 -564 0
-613 614 615 0
-613 -614 -615 0
613 -614 615 0
613 614 -615 0
614 -565 566 0
-614 565 0
-614 -566 0
-615 616 617 0
-615 -616 -617 0
615 -616 617 0
615 616 -617 0
616 -567 568 0
-616 567 0
-616 -568 0
-617 618 619 0
-617 -618 -619 0
617 -618 619 0
617 618 -619 0
618 -569 570 0
-618 569 0
-618 -570 0
-619 620 621 0
-619 -620 -621 0
619 -620 621 0
619 620 -621 0
620 -571 572 0
-620 571 0
-620 -572 0
-621 622 623 0
-621 -622 -623 0
621 -622 623 0
621 622 -623 0
622 -573 574 0
-622 573 0
-622 -574 0
-623 624 625 0
-623 -624 -625 0
623 -624 625 0
623 624 -625 0
624 -575 576 0
-624 575 0
-624 -576 0
-625 626 627 0
-625 -626 -627 0
625 -626 627 0
625 626 -627 0
626 -577 578 0
-626 577 0
-626 -578 0
-627 628 629 0
-627 -628 -629 0
627 -628 629 0
627 628 -629 0
628 -579 580 0
-628 579 0
-628 -580 0
-629 630 631 0
-629 -630 -631 0
629 -630 631 0
629 630 -631 0
630 -581 582 0
-630 581 0
-630 -582 0
-631 632 633 0
-631 -632 -633 0
631 -632 633 0
631 632 -633 0
632 -583 584 0
-632 583 0
-632 -584 0
-633 634 635 0
-633 -634 -635 0
633 -634 635 0
633 634 -635 0
634 -585 586 0
-634 585 0
-634 -586 0
-635 636 637 0
-635 -636 -637 0
635 -636 637 0
635 636 -637 0
636 -587 588 0
-636 587 0
-636 -588 0
-637 638 639 0
-637 -638 -639 0
637 -638 639 0
637 638 -639 0
638 -589 590 0
-638 589 0
-638 -590 0
-639 640 641 0
-639 -640 -641 0
639 -640 641 0
639 640 -641 0
640 -591 592 0
-640 591 0
-640 -592 0
-641 642 643 0
-641 -642 -643 0
641 -642 643 0
641 642 -643 0
642 -593 594 0
-642 593 0
-642 -594 0
-643 644 645 0
-643 -644 -645 0
643 -644 645 0
643 644 -645 0
644 -595 596 0
-644 595 0
-644 -596 0
-645 646 647 0
-645 -646 -647 0
645 -646 647 0
645 646 -647 0
646 -597 598 0
-646 597 0
-646 -598 0
-647 -648 -649 0
-647 648 649 0
647 648 -649 0
647 -648 649 0
648 715 -721 599 0
-648 -599 0
-648 721 0
-648 -715 0
649 -714 650 0
649 714 -650 0
-649 714 650 0
-649 -714 -650 0
-650 715 599 0
650 -715 0
650 -599 0
-651 652 698 0
-651 -652 -698 0
651 -652 698 0
651 652 -698 0
652 653 -654 0
652 -653 654 0
-652 -653 -654 0
-652 653 654 0
653 -606 607 0
-653 606 0
-653 -607 0
654 -655 695 0
654 655 -695 0
-654 655 695 0
-654 -655 -695 0
-655 656 692 0
-655 -656 -692 0
655 -656 692 0
655 656 -692 0
656 -657 689 0
656 657 -689 0
-656 657 689 0
-656 -657 -689 0
-657 658 686 0
-657 -658 -686 0
657 -658 686 0
657 658 -686 0
658 -659 683 0
658 659 -683 0
-658 659 683 0
-658 -659 -683 0
-659 660 680 0
-659 -660 -680 0
659 -660 680 0
659 660 -680 0
660 -661 677 0
660 661 -677 0
-660 661 677 0
-660 -661 -677 0
-661 -662 -663 0
-661 662 663 0
661 662 -663 0
661 -662 663 0
662 -636 637 0
-662 636 0
-662 -637 0
663 664 -667 0
663 -664 667 0
-663 -664 -667 0
-663 664 667 0
-664 665 666 0
664 -665 0
664 -666 0
665 -640 641 0
-665 640 0
-665 -641 0
666 -638 639 0
-666 638 0
-666 -639 0
667 -668 674 0
667 668 -674 0
-667 668 674 0
-667 -668 -674 0
-668 -669 -672 0
-668 669 672 0
668 669 -672 0
668 -669 672 0
-669 670 671 0
669 -670 0
669 -671 0
670 714 715 -721 599 0
-670 -714 0
-670 -599 0
-670 721 0
-670 -715 0
671 -646 647 0
-671 646 0
-671 -647 0
672 -713 673 0
672 713 -673 0
-672 713 673 0
-672 -713 -673 0
-673 714 650 0
673 -714 0
673 -650 0
-674 675 676 0
674 -675 0
674 -676 0
675 -644 645 0
-675 644 0
-675 -645 0
676 -642 643 0
-676 642 0
-676 -643 0
-677 678 679 0
677 -678 0
677 -679 0
678 -634 635 0
-678 634 0
-678 -635 0
679 -632 633 0
-679 632 0
-679 -633 0
-680 681 682 0
680 -681 0
680 -682 0
681 -630 631 0
-681 630 0
-681 -631 0
682 -628 629 0
-682 628 0
-682 -629 0
-683 684 685 0
683 -684 0
683 -685 0
684 -626 627 0
-684 626 0
-684 -627 0
685 -624 625 0
-685 624 0
-685 -625 0
-686 687 688 0
686 -687 0
686 -688 0
687 -622 623 0
-687 622 0
-687 -623 0
688 -620 621 0
-688 620 0
-688 -621 0
-689 690 691 0
689 -690 0
689 -691 0
690 -618 619 0
-690 618 0
-690 -619 0
691 -616 617 0
-691 616 0
-691 -617 0
-692 693 694 0
692 -693 0
692 -694 0
693 -614 615 0
-693 614 0
-693 -615 0
694 -612 613 0
-694 612 0
-694 -613 0
-695 696 697 0
695 -696 0
695 -697 0
696 -610 611 0
-696 610 0
-696 -611 0
697 -608 609 0
-697 608 0
-697 -609 0
-698 699 700 0
698 -699 0
698 -700 0
699 -604 605 0
-699 604 0
-699 -605 0
700 -602 603 0
-700 602 0
-700 -603 0
701 714 -702 0
701 -714 702 0
-701 -714 -702 0
-701 714 702 0
702 -5 601 0
702 5 -601 0
-702 5 601 0
-702 -5 -601 0
-703 -715 704 0
-703 -6 -552 704 0
-703 6 552 704 0
703 -704 0
703 715 -6 552 0
703 715 6 -552 0
-704 717 705 707 708 0
-704 -717 705 -707 708 0
704 -708 0
704 717 -707 0
704 -705 0
704 -717 707 0
705 716 -706 0
705 -716 706 0
-705 -716 -706 0
-705 716 706 0
706 -7 508 0
706 7 -508 0
-706 7 508 0
-706 -7 -508 0
707 -8 463 0
707 8 -463 0
-707 8 463 0
-707 -8 -463 0
-708 718 709 710 712 0
-708 -718 -709 710 712 0
708 -710 0
708 -718 709 0
708 -712 0
708 718 -709 0
709 -9 423 0
709 9 -423 0
-709 9 423 0
-709 -9 -423 0
710 719 -711 0
710 -719 711 0
-710 -719 -711 0
-710 719 711 0
711 -10 383 0
711 10 -383 0
-711 10 383 0
-711 -10 -383 0
712 720 11 -344 0
712 720 -11 344 0
-712 -720 0
-712 11 344 0
-712 -11 -344 0
-777 0
2 0

